% File represents an instance of a Composite Structure problem to be solved by a CP framework
% Created on 2025-03-25 14:06:10.276
T = 44;
n = 4;
m = 4;
edges = [(1, 2),
(4, 3),
(1, 3),
(4, 2)];
counts = [|16, 8, 6, 14,
|8, 8, 4, 14,
|8, 8, 4, 14,
|8, 8, 6, 22|];
